100
128
44
19
10
27
27
33
27
14
11
5
10
11
37
62
29
18
45
46
40
1
35
29
12
31
9
26
51
15
15
56
31
43
23
16
13
46
46
39
18
64
55
39
63
34
51
22
29
36
25
25
36
16
14
31
5
14
32
24
40
48
14
34
3
45
30
20
23
52
18
16
4
18
37
2
53
19
33
25
29
60
23
40
28
22
60
26
51
28
20
17
22
2
59
51
17
37
19
27
62
2